NAME: tsp20-6
TYPE: TSP
DIMENSION: 20
EDGE_WEIGHT_TYPE: EUC_2D
NODE_COORD_SECTION
0 60 12
1 82 24
2 92 86
3 81 97
4 3 66
5 35 31
6 80 38
7 100 61
8 43 86
9 83 49
10 72 100
11 56 42
12 47 38
13 20 73
14 36 22
15 43 30
16 62 52
17 8 55
18 32 59
19 43 87
EOF